(set-logic QF_SLIA)
(declare-fun var0 () String)
(assert (str.in_re var0 (re.++ ((_ re.loop 17 449) (re.++ (re.union (str.to_re "7") (re.union (str.to_re "cA") (re.union (str.to_re "H^e") (str.to_re "b")))) (re.++ (re.union (str.to_re "C2") (re.union (str.to_re "[9") (re.union (str.to_re "7") (str.to_re "G")))) (re.++ (re.union (str.to_re "HY") (re.union (str.to_re "I") (re.union (str.to_re "R") (str.to_re "?fy")))) (re.union (str.to_re "CrR") (re.union (str.to_re "sa") (re.union (str.to_re "-M#") (str.to_re "j-")))))))) (re.++ ((_ re.loop 11 79) (re.++ (re.union (str.to_re "^") (re.union (str.to_re "9`") (re.union (str.to_re "`") (str.to_re "\u0022E")))) (re.++ (re.union (str.to_re "Z@") (re.union (str.to_re "Ic") (re.union (str.to_re "BU") (str.to_re "O~")))) (re.++ (re.union (str.to_re "Bb") (re.union (str.to_re "J") (re.union (str.to_re "vf") (str.to_re "^(")))) (re.union (str.to_re "C") (re.union (str.to_re "nq@") (re.union (str.to_re ",") (str.to_re "V")))))))) (re.++ ((_ re.loop 11 602) (re.++ (re.union (str.to_re ";") (re.union (str.to_re "Y") (re.union (str.to_re "3Jq") (str.to_re "{2")))) (re.++ (re.union (str.to_re "#") (re.union (str.to_re "PcS") (re.union (str.to_re "7mS") (str.to_re "?kO")))) (re.++ (re.union (str.to_re "5q") (re.union (str.to_re "[") (re.union (str.to_re "fa") (str.to_re "(")))) (re.union (str.to_re "X") (re.union (str.to_re "TQ") (re.union (str.to_re "mIn") (str.to_re "yqe")))))))) ((_ re.loop 3 477) (re.++ (re.union (str.to_re "aD") (re.union (str.to_re "P") (re.union (str.to_re ":") (str.to_re "p2")))) (re.++ (re.union (str.to_re "%") (re.union (str.to_re "aM") (re.union (str.to_re "D") (str.to_re "L")))) (re.++ (re.union (str.to_re "S#N") (re.union (str.to_re "%") (re.union (str.to_re "j") (str.to_re "r,")))) (re.union (str.to_re "CF^") (re.union (str.to_re "A") (re.union (str.to_re "dB") (str.to_re "Q")))))))))))))
(assert (not (str.in_re var0 (re.++ ((_ re.loop 1 137) (re.++ (re.union (str.to_re ";s") (re.union (str.to_re "d") (re.union (str.to_re "XJ") (str.to_re "/")))) (re.++ (re.union (str.to_re "6}") (re.union (str.to_re "Hc") (re.union (str.to_re "R") (str.to_re ";23")))) (re.++ (re.union (str.to_re "M") (re.union (str.to_re "E{G") (re.union (str.to_re "5Df") (str.to_re ">79")))) (re.union (str.to_re "\u0022+") (re.union (str.to_re "&") (re.union (str.to_re "wl8") (str.to_re "6F;")))))))) (re.++ ((_ re.loop 10 117) (re.++ (re.union (str.to_re "D") (re.union (str.to_re "+$a") (re.union (str.to_re "E") (str.to_re "]z")))) (re.++ (re.union (str.to_re "[") (re.union (str.to_re "@[") (re.union (str.to_re "'") (str.to_re "`")))) (re.++ (re.union (str.to_re "~vD") (re.union (str.to_re "^(j") (re.union (str.to_re "$0") (str.to_re "k`")))) (re.union (str.to_re "t#T") (re.union (str.to_re "&GW") (re.union (str.to_re "=") (str.to_re "`4S")))))))) (re.++ ((_ re.loop 2 721) (re.++ (re.union (str.to_re "1-/") (re.union (str.to_re ":") (re.union (str.to_re ".o#") (str.to_re "\\G")))) (re.++ (re.union (str.to_re "Z,}") (re.union (str.to_re "%8R") (re.union (str.to_re "F=G") (str.to_re "~6&")))) (re.++ (re.union (str.to_re "m") (re.union (str.to_re ",") (re.union (str.to_re "TA") (str.to_re "]d&")))) (re.union (str.to_re "UK<") (re.union (str.to_re "g") (re.union (str.to_re "1&") (str.to_re "H8")))))))) ((_ re.loop 12 801) (re.++ (re.union (str.to_re "vC") (re.union (str.to_re ";T") (re.union (str.to_re "#_H") (str.to_re ":yP")))) (re.++ (re.union (str.to_re "YR") (re.union (str.to_re "&9") (re.union (str.to_re "(o") (str.to_re "qL")))) (re.++ (re.union (str.to_re "i") (re.union (str.to_re "X") (re.union (str.to_re "l?") (str.to_re "XTO")))) (re.union (str.to_re "0EX") (re.union (str.to_re "aD") (re.union (str.to_re "B!w") (str.to_re "?H"))))))))))))))
(assert (not (str.in_re var0 (re.++ (re.* re.allchar) (re.++ (re.union (str.to_re "<") (re.union (str.to_re ">") (re.union (str.to_re "'") (re.union (str.to_re "\u0022") (str.to_re "&"))))) (re.* re.allchar))))))
(assert (<= 50 (str.len var0)))
(check-sat)
(get-model)
